NAME obj
ROWS
 N  OBJ
 G  R0      
 G  R1      
 G  R2      
 G  R3      
 G  R4      
 G  R5      
 G  R6      
 G  R7      
 G  R8      
 G  R9      
 G  R10     
 G  R11     
 G  R12     
 G  R13     
 G  R14     
 G  R15     
 G  R16     
 G  R17     
 G  R18     
 G  R19     
 G  R20     
 G  R21     
 G  R22     
 G  R23     
 G  R24     
 G  R25     
 G  R26     
 G  R27     
COLUMNS
    X0        OBJ       1
    X0        R0        1
    X0        R1        1
    X0        R7        1
    X1        OBJ       1
    X1        R0        1
    X1        R2        1
    X1        R8        1
    X2        OBJ       1
    X2        R0        1
    X2        R3        1
    X2        R9        1
    X3        OBJ       1
    X3        R0        1
    X3        R4        1
    X3        R10       1
    X4        OBJ       1
    X4        R0        1
    X4        R5        1
    X4        R11       1
    X5        OBJ       1
    X5        R0        1
    X5        R6        1
    X5        R12       1
    X6        OBJ       1
    X6        R1        1
    X6        R2        1
    X6        R13       1
    X7        OBJ       1
    X7        R1        1
    X7        R3        1
    X7        R14       1
    X8        OBJ       1
    X8        R1        1
    X8        R4        1
    X8        R15       1
    X9        OBJ       1
    X9        R1        1
    X9        R5        1
    X9        R16       1
    X10       OBJ       1
    X10       R1        1
    X10       R6        1
    X10       R17       1
    X11       OBJ       1
    X11       R2        1
    X11       R3        1
    X11       R18       1
    X12       OBJ       1
    X12       R2        1
    X12       R4        1
    X12       R19       1
    X13       OBJ       1
    X13       R2        1
    X13       R5        1
    X13       R20       1
    X14       OBJ       1
    X14       R2        1
    X14       R6        1
    X14       R21       1
    X15       OBJ       1
    X15       R3        1
    X15       R4        1
    X15       R22       1
    X16       OBJ       1
    X16       R3        1
    X16       R5        1
    X16       R23       1
    X17       OBJ       1
    X17       R3        1
    X17       R6        1
    X17       R24       1
    X18       OBJ       1
    X18       R4        1
    X18       R5        1
    X18       R25       1
    X19       OBJ       1
    X19       R4        1
    X19       R6        1
    X19       R26       1
    X20       OBJ       1
    X20       R5        1
    X20       R6        1
    X20       R27       1
    X21       OBJ       1
    X21       R7        1
    X21       R8        1
    X21       R13       1
    X22       OBJ       1
    X22       R7        1
    X22       R9        1
    X22       R14       1
    X23       OBJ       1
    X23       R7        1
    X23       R10       1
    X23       R15       1
    X24       OBJ       1
    X24       R7        1
    X24       R11       1
    X24       R16       1
    X25       OBJ       1
    X25       R7        1
    X25       R12       1
    X25       R17       1
    X26       OBJ       1
    X26       R8        1
    X26       R9        1
    X26       R18       1
    X27       OBJ       1
    X27       R8        1
    X27       R10       1
    X27       R19       1
    X28       OBJ       1
    X28       R8        1
    X28       R11       1
    X28       R20       1
    X29       OBJ       1
    X29       R8        1
    X29       R12       1
    X29       R21       1
    X30       OBJ       1
    X30       R9        1
    X30       R10       1
    X30       R22       1
    X31       OBJ       1
    X31       R9        1
    X31       R11       1
    X31       R23       1
    X32       OBJ       1
    X32       R9        1
    X32       R12       1
    X32       R24       1
    X33       OBJ       1
    X33       R10       1
    X33       R11       1
    X33       R25       1
    X34       OBJ       1
    X34       R10       1
    X34       R12       1
    X34       R26       1
    X35       OBJ       1
    X35       R11       1
    X35       R12       1
    X35       R27       1
    X36       OBJ       1
    X36       R13       1
    X36       R14       1
    X36       R18       1
    X37       OBJ       1
    X37       R13       1
    X37       R15       1
    X37       R19       1
    X38       OBJ       1
    X38       R13       1
    X38       R16       1
    X38       R20       1
    X39       OBJ       1
    X39       R13       1
    X39       R17       1
    X39       R21       1
    X40       OBJ       1
    X40       R14       1
    X40       R15       1
    X40       R22       1
    X41       OBJ       1
    X41       R14       1
    X41       R16       1
    X41       R23       1
    X42       OBJ       1
    X42       R14       1
    X42       R17       1
    X42       R24       1
    X43       OBJ       1
    X43       R15       1
    X43       R16       1
    X43       R25       1
    X44       OBJ       1
    X44       R15       1
    X44       R17       1
    X44       R26       1
    X45       OBJ       1
    X45       R16       1
    X45       R17       1
    X45       R27       1
    X46       OBJ       1
    X46       R18       1
    X46       R19       1
    X46       R22       1
    X47       OBJ       1
    X47       R18       1
    X47       R20       1
    X47       R23       1
    X48       OBJ       1
    X48       R18       1
    X48       R21       1
    X48       R24       1
    X49       OBJ       1
    X49       R19       1
    X49       R20       1
    X49       R25       1
    X50       OBJ       1
    X50       R19       1
    X50       R21       1
    X50       R26       1
    X51       OBJ       1
    X51       R20       1
    X51       R21       1
    X51       R27       1
    X52       OBJ       1
    X52       R22       1
    X52       R23       1
    X52       R25       1
    X53       OBJ       1
    X53       R22       1
    X53       R24       1
    X53       R26       1
    X54       OBJ       1
    X54       R23       1
    X54       R24       1
    X54       R27       1
    X55       OBJ       1
    X55       R25       1
    X55       R26       1
    X55       R27       1
RHS
    RHS1      R0        1
    RHS1      R1        1
    RHS1      R2        1
    RHS1      R3        1
    RHS1      R4        1
    RHS1      R5        1
    RHS1      R6        1
    RHS1      R7        1
    RHS1      R8        1
    RHS1      R9        1
    RHS1      R10       1
    RHS1      R11       1
    RHS1      R12       1
    RHS1      R13       1
    RHS1      R14       1
    RHS1      R15       1
    RHS1      R16       1
    RHS1      R17       1
    RHS1      R18       1
    RHS1      R19       1
    RHS1      R20       1
    RHS1      R21       1
    RHS1      R22       1
    RHS1      R23       1
    RHS1      R24       1
    RHS1      R25       1
    RHS1      R26       1
    RHS1      R27       1
BOUNDS
 UP BND1      X0        1
 UP BND1      X1        1
 UP BND1      X2        1
 UP BND1      X3        1
 UP BND1      X4        1
 UP BND1      X5        1
 UP BND1      X6        1
 UP BND1      X7        1
 UP BND1      X8        1
 UP BND1      X9        1
 UP BND1      X10       1
 UP BND1      X11       1
 UP BND1      X12       1
 UP BND1      X13       1
 UP BND1      X14       1
 UP BND1      X15       1
 UP BND1      X16       1
 UP BND1      X17       1
 UP BND1      X18       1
 UP BND1      X19       1
 UP BND1      X20       1
 UP BND1      X21       1
 UP BND1      X22       1
 UP BND1      X23       1
 UP BND1      X24       1
 UP BND1      X25       1
 UP BND1      X26       1
 UP BND1      X27       1
 UP BND1      X28       1
 UP BND1      X29       1
 UP BND1      X30       1
 UP BND1      X31       1
 UP BND1      X32       1
 UP BND1      X33       1
 UP BND1      X34       1
 UP BND1      X35       1
 UP BND1      X36       1
 UP BND1      X37       1
 UP BND1      X38       1
 UP BND1      X39       1
 UP BND1      X40       1
 UP BND1      X41       1
 UP BND1      X42       1
 UP BND1      X43       1
 UP BND1      X44       1
 UP BND1      X45       1
 UP BND1      X46       1
 UP BND1      X47       1
 UP BND1      X48       1
 UP BND1      X49       1
 UP BND1      X50       1
 UP BND1      X51       1
 UP BND1      X52       1
 UP BND1      X53       1
 UP BND1      X54       1
 UP BND1      X55       1
ENDATA
